17	4	3
22	23	21	27	39	37	31	
0	0	0	0	0	9	4	9	9	1	7	3	2	3	4
1	2	1	3	7	7	8	10	9	9	8	3	8	10	12
5	7	3	4	10	8	7	6	1	7	6	2	5	6
1	7	6	10	1	4	2	4	3	7	2	3	7	8	15
9	4	8	4	10	7	4	2	6	2	6	2	11	13
100	3	9	7	10	5	10	9	3	9	10	3	11	16	17
150	3	9	10	9	9	6	7	8	4	5	3	12	16	17
75	8	9	10	9	6	2	2	1	2	9	1	9
200	3	7	4	9	7	6	10	10	8	7	2	14	17
250	4	3	6	4	2	4	10	3	10	1	1	17
100	2	4	2	1	8	4	1	6	7	10	2	15	17
150	9	6	5	10	6	6	5	2	3	9	1	17
10	2	7	9	1	7	9	1	8	9	2	2	17	17
9	10	5	4	10	7	5	8	6	5	6	2	16	17
5	4	8	6	3	2	6	10	2	9	9	1	17
1	2	1	1	6	3	7	3	4	3	9	1	17
0	0	0	0	0	3	8	4	8	9	7	0
